29219
129,440,674,732,829,1032,1039,1049,1090,1113,1343,1388,1414,1444,1489,1890,1974,2039,2395,2417,2423,2467,2587,2642,2798,2875,2983,3166,3175,3329,3411,3420,3501,3557,3567,3586,3699,3759,3771,3844,3905,3939,4026,4036,4131,4348,4673,4765,4794,4813,4863,4887,4912,4927
